* LP written by GAMS Convert at 12/16/23 14:01:59
*
* Equation counts
*     Total        E        G        L        N        X        C        B
*        52        2       28       22        0        0        0        0
*
* Variable counts
*                  x        b        i      s1s      s2s       sc       si
*     Total     cont   binary  integer     sos1     sos2    scont     sint
*        67       67        0        0        0        0        0        0
* FX      0
*
* Nonzero counts
*     Total    const       NL
*       602      602        0

NAME          Convert
*
* original model was maximizing
*
ROWS
 N  obj
 L  e1
 L  e2
 L  e3
 L  e4
 L  e5
 L  e6
 L  e7
 L  e8
 L  e9
 L  e10
 L  e11
 L  e12
 L  e13
 L  e14
 L  e15
 G  e16
 G  e17
 G  e18
 G  e19
 G  e20
 G  e21
 G  e22
 G  e23
 G  e24
 G  e25
 G  e26
 G  e27
 G  e28
 G  e29
 G  e30
 G  e31
 G  e32
 G  e33
 G  e34
 G  e35
 G  e36
 G  e37
 G  e38
 G  e39
 G  e40
 L  e41
 L  e42
 L  e43
 L  e44
 L  e45
 G  e46
 L  e47
 L  e48
 G  e49
 G  e50
 E  e51
 E  e52
COLUMNS
    x1        e1        0.4763886364
    x1        e2           0.1605575
    x1        e3         0.164056875
    x1        e4             0.19877
    x1        e5            0.234588
    x1        e6        0.4854857143
    x1        e7         0.680020625
    x1        e8        0.3521633333
    x1        e9            0.333424
    x1        e10           0.297075
    x1        e11            1.15321
    x1        e12       0.3065314286
    x1        e13       0.2085366667
    x1        e14       0.1918642857
    x1        e15           0.124125
    x1        e16          0.1505152
    x1        e18         0.05117395
    x1        e20         0.27853605
    x1        e24             0.2791
    x1        e38        0.430086545
    x1        e41       0.0522647646
    x1        e42       0.0067402018
    x1        e43       0.0160754827
    x1        e44        0.004264012
    x1        e45       0.0073932885
    x1        e46           0.131724
    x1        e47                  1
    x1        e51           -40.7913
    x2        e1        0.4763886364
    x2        e2           0.1605575
    x2        e3         0.164056875
    x2        e4             0.19877
    x2        e5            0.234588
    x2        e6        0.4854857143
    x2        e7         0.680020625
    x2        e8        0.3521633333
    x2        e9            0.333424
    x2        e10           0.297075
    x2        e11            1.15321
    x2        e12       0.3065314286
    x2        e13       0.2085366667
    x2        e14       0.1918642857
    x2        e15           0.124125
    x2        e16        0.161051264
    x2        e18       0.0547561265
    x2        e20       0.2980335735
    x2        e24           0.298637
    x2        e38       0.4601926032
    x2        e41       0.0495710179
    x2        e42       0.0074176206
    x2        e43       0.0168620369
    x2        e44       0.0053371359
    x2        e45        0.008139037
    x2        e46           0.131724
    x2        e47                  1
    x2        e51           -40.7913
    x3        e1        0.4545840909
    x3        e2          0.16342125
    x3        e3          0.10530625
    x3        e4        0.0695733333
    x3        e5        0.0982066667
    x3        e6              0.3582
    x3        e7              0.4546
    x3        e8        0.5993333333
    x3        e9        0.3333333333
    x3        e10              0.375
    x3        e11       0.1014285714
    x3        e12       0.2161904762
    x3        e13       0.1755566667
    x3        e14       0.0923535714
    x3        e15           0.121475
    x3        e16          0.1836542
    x3        e26            0.42885
    x3        e28         0.35025105
    x3        e31             0.5745
    x3        e32          0.4934955
    x3        e38          0.6125042
    x3        e41        0.082014262
    x3        e42       0.0045450802
    x3        e43        0.013657776
    x3        e44       0.0044398119
    x3        e45       0.0094684963
    x3        e46           0.087655
    x3        e47                  1
    x3        e49           -0.02256
    x3        e51           -34.9733
    x4        e1        0.3334090909
    x4        e2            0.103125
    x4        e3            0.108125
    x4        e4        0.0706666667
    x4        e5        0.1006666667
    x4        e6        0.2428571429
    x4        e7              0.6825
    x4        e8        0.2933333333
    x4        e9        0.3606666667
    x4        e10       0.4658333333
    x4        e11       0.0714285714
    x4        e12       0.1738095238
    x4        e13       0.1456666667
    x4        e14       0.5303571429
    x4        e15             0.5595
    x4        e16            0.19242
    x4        e22            0.48135
    x4        e28           0.248405
    x4        e31             0.5745
    x4        e38            0.67377
    x4        e41       0.0775716345
    x4        e42       0.0072618795
    x4        e43         0.01588095
    x4        e44       0.0046478046
    x4        e45       0.0095010775
    x4        e46             0.0895
    x4        e47                  1
    x4        e49             -0.016
    x4        e51             -33.73
    x5        e1        0.3334090909
    x5        e2            0.103125
    x5        e3            0.108125
    x5        e4        0.0706666667
    x5        e5        0.1006666667
    x5        e6        0.2428571429
    x5        e7              0.6825
    x5        e8        0.2933333333
    x5        e9        0.3606666667
    x5        e10       0.4658333333
    x5        e11       0.0714285714
    x5        e12       0.1738095238
    x5        e13       0.1456666667
    x5        e14       0.5303571429
    x5        e15             0.5595
    x5        e16          0.2058894
    x5        e22          0.5150445
    x5        e28         0.26579335
    x5        e31           0.614715
    x5        e38          0.7209339
    x5        e41       0.0775716345
    x5        e42       0.0079880675
    x5        e43       0.0166749975
    x5        e44       0.0058097557
    x5        e45       0.0104511853
    x5        e46             0.0895
    x5        e47                  1
    x5        e49             -0.016
    x5        e51             -33.73
    x6        e1        0.4545840909
    x6        e2          0.16342125
    x6        e3          0.10530625
    x6        e4        0.0695733333
    x6        e5        0.0982066667
    x6        e6              0.3582
    x6        e7           0.4009125
    x6        e8        0.7138666667
    x6        e9        0.3333333333
    x6        e10              0.375
    x6        e11       0.1014285714
    x6        e12       0.2161904762
    x6        e13       0.1755566667
    x6        e14       0.0923535714
    x6        e15           0.121475
    x6        e18         0.22776385
    x6        e26            0.42885
    x6        e28         0.35025105
    x6        e31             0.5745
    x6        e38        0.679390235
    x6        e41       0.0867377001
    x6        e42       0.0047741336
    x6        e43       0.0144116559
    x6        e44       0.0047984616
    x6        e45       0.0107237702
    x6        e46           0.087655
    x6        e47                  1
    x6        e49           -0.02256
    x6        e51           -34.9733
    x7        e1        0.3334090909
    x7        e2            0.103125
    x7        e3            0.108125
    x7        e4        0.0706666667
    x7        e5        0.1006666667
    x7        e6        0.2428571429
    x7        e7             0.62625
    x7        e8        0.4133333333
    x7        e9        0.3606666667
    x7        e10       0.4658333333
    x7        e11       0.0714285714
    x7        e12       0.1738095238
    x7        e13       0.1456666667
    x7        e14       0.5303571429
    x7        e15             0.5595
    x7        e18           0.238635
    x7        e22            0.48135
    x7        e28           0.248405
    x7        e38          0.7438485
    x7        e41       0.0825205219
    x7        e42       0.0075018656
    x7        e43       0.0166708125
    x7        e44       0.0050235726
    x7        e45       0.0108162655
    x7        e46             0.0895
    x7        e47                  1
    x7        e49             -0.016
    x7        e51             -33.73
    x8        e1        0.3334090909
    x8        e2            0.103125
    x8        e3            0.108125
    x8        e4        0.0706666667
    x8        e5        0.1006666667
    x8        e6        0.2428571429
    x8        e7             0.62625
    x8        e8        0.4133333333
    x8        e9        0.3606666667
    x8        e10       0.4658333333
    x8        e11       0.0714285714
    x8        e12       0.1738095238
    x8        e13       0.1456666667
    x8        e14       0.5303571429
    x8        e15             0.5595
    x8        e18         0.25533945
    x8        e22          0.5150445
    x8        e28         0.26579335
    x8        e38        0.795917895
    x8        e41       0.0825205219
    x8        e42       0.0082520522
    x8        e43       0.0175043531
    x8        e44       0.0062794657
    x8        e45       0.0118978921
    x8        e46             0.0895
    x8        e47                  1
    x8        e49             -0.016
    x8        e51             -33.73
    x9        e1        0.2155886364
    x9        e2           0.1227175
    x9        e3         0.115656875
    x9        e4        0.1799966667
    x9        e5            0.192348
    x9        e6        0.6262857143
    x9        e7         0.442420625
    x9        e8        0.3521633333
    x9        e9            0.333424
    x9        e10           0.297075
    x9        e11            1.15321
    x9        e12       0.3065314286
    x9        e13            0.17803
    x9        e14            0.18935
    x9        e15           0.106525
    x9        e18         0.05117395
    x9        e20         0.27853605
    x9        e24             0.2791
    x9        e28          1.7487712
    x9        e38        0.279571345
    x9        e41       0.0307260394
    x9        e42       0.0046179374
    x9        e43       0.0115600267
    x9        e44        0.003854316
    x9        e45       0.0059636757
    x9        e46           0.100044
    x9        e47                  1
    x9        e49           -0.11264
    x9        e51           -34.6665
    x10       e1        0.2155886364
    x10       e2           0.1227175
    x10       e3         0.115656875
    x10       e4        0.1799966667
    x10       e5            0.192348
    x10       e6        0.6262857143
    x10       e7         0.442420625
    x10       e8        0.3521633333
    x10       e9            0.333424
    x10       e10           0.297075
    x10       e11            1.15321
    x10       e12       0.3065314286
    x10       e13            0.17803
    x10       e14            0.18935
    x10       e15           0.106525
    x10       e18       0.0547561265
    x10       e20       0.2980335735
    x10       e24           0.298637
    x10       e28        1.871185184
    x10       e38       0.2991413391
    x10       e41       0.0280322928
    x10       e42       0.0050831298
    x10       e43       0.0121208081
    x10       e44        0.004825016
    x10       e45       0.0065664629
    x10       e46           0.100044
    x10       e47                  1
    x10       e49           -0.11264
    x10       e51           -34.6665
    x11       e1        0.1363636364
    x11       e2             0.11725
    x11       e3             0.04625
    x11       e4        0.0466666667
    x11       e5        0.0466666667
    x11       e6                0.53
    x11       e7           0.1646875
    x11       e8        0.5993333333
    x11       e9        0.3333333333
    x11       e10              0.375
    x11       e11       0.1014285714
    x11       e12       0.2161904762
    x11       e13       0.1383333333
    x11       e14       0.0892857143
    x11       e15                0.1
    x11       e26            0.42885
    x11       e28            2.48405
    x11       e31             0.5745
    x11       e32          0.4934955
    x11       e38            0.42885
    x11       e41        0.055733346
    x11       e42        0.001955556
    x11       e43         0.00814815
    x11       e44        0.003939913
    x11       e45        0.007724125
    x11       e46              0.049
    x11       e47                  1
    x11       e49              -0.16
    x11       e51              -27.5
    x12       e1        0.1363636364
    x12       e2             0.11725
    x12       e3             0.04625
    x12       e4        0.0466666667
    x12       e5        0.0466666667
    x12       e6        0.3371428571
    x12       e7            0.353125
    x12       e8        0.5993333333
    x12       e9        0.3333333333
    x12       e10              0.375
    x12       e11       0.1014285714
    x12       e12       0.2161904762
    x12       e13       0.1383333333
    x12       e14       0.0892857143
    x12       e15                0.1
    x12       e26            0.42885
    x12       e28           0.248405
    x12       e38            0.42885
    x12       e41        0.055733346
    x12       e42        0.001955556
    x12       e43         0.00814815
    x12       e44        0.003693992
    x12       e45        0.007724125
    x12       e46             0.0454
    x12       e47                  1
    x12       e49               0.74
    x12       e51             -25.43
    x13       e2             0.05475
    x13       e3             0.04625
    x13       e4        0.0466666667
    x13       e5        0.0466666667
    x13       e6        0.4228571429
    x13       e7             0.37875
    x13       e8        0.2933333333
    x13       e9        0.3606666667
    x13       e10       0.4658333333
    x13       e11       0.0714285714
    x13       e12       0.1738095238
    x13       e13       0.1066666667
    x13       e14       0.5271428571
    x13       e15              0.537
    x13       e22            0.48135
    x13       e28            2.48405
    x13       e31             0.5745
    x13       e38            0.48135
    x13       e41       0.0500363325
    x13       e42       0.0045487575
    x13       e43         0.01010835
    x13       e44       0.0041240455
    x13       e45       0.0076734475
    x13       e46              0.049
    x13       e47                  1
    x13       e49              -0.16
    x13       e51              -25.9
    x14       e1        0.7181409091
    x14       e2        0.2185404167
    x14       e3         0.145571875
    x14       e4        0.0466666667
    x14       e5        0.1039333333
    x14       e6             0.40115
    x14       e7            0.390175
    x14       e8        0.5993333333
    x14       e9        0.3333333333
    x14       e10              0.375
    x14       e11       0.1014285714
    x14       e12       0.2161904762
    x14       e13       0.1669666667
    x14       e14       0.0432678571
    x14       e15            0.03987
    x14       e26            0.42885
    x14       e28         0.35025105
    x14       e30         0.09496245
    x14       e31             0.5745
    x14       e37         0.07596996
    x14       e38        0.571293675
    x14       e41       0.0808604103
    x14       e42       0.0058110315
    x14       e43       0.0147955215
    x14       e44       0.0054145192
    x14       e45       0.0117695254
    x14       e46           0.084219
    x14       e47                  1
    x14       e49           -0.02256
    x14       e51           -33.9425
    x15       e1        0.1363636364
    x15       e2        0.1100916667
    x15       e3             0.04625
    x15       e4        0.0466666667
    x15       e5        0.0466666667
    x15       e6        0.3459285714
    x15       e7           0.1646875
    x15       e8        0.5993333333
    x15       e9        0.3333333333
    x15       e10              0.375
    x15       e11       0.1014285714
    x15       e12       0.2161904762
    x15       e13       0.1383333333
    x15       e14       0.0125892857
    x15       e15             0.0141
    x15       e26            0.42885
    x15       e28         0.35025105
    x15       e34             0.5154
    x15       e38            0.42885
    x15       e41        0.055733346
    x15       e42        0.001955556
    x15       e43         0.00814815
    x15       e44       0.0037051951
    x15       e45        0.007724125
    x15       e46           0.045564
    x15       e47                  1
    x15       e49           -0.02256
    x15       e51           -25.5243
    x16       e34                0.3
    x16       e42              0.002
    x16       e43              0.011
    x16       e44              0.001
    x16       e45             0.0025
    x16       e48                  1
    x17       e39               0.24
    x17       e42            0.00458
    x17       e43            0.02135
    x17       e44            0.00257
    x17       e45            0.00393
    x17       e48                  1
    x18       e29                  1
    x18       e34              -0.55
    x18       e35                  8
    x18       e36               -3.3
    x18       e38               -8.8
    x18       e51                -90
    x19       e27                  1
    x19       e29              -0.12
    x19       e34               -0.5
    x19       e35                  8
    x19       e36               -2.6
    x19       e38               -8.8
    x19       e51                -60
    x20       e16                 -1
    x20       e36                  1
    x21       e18                 -1
    x21       e36                  1
    x22       e20                 -1
    x22       e36                  1
    x23       e22                 -1
    x23       e36                  1
    x24       e24                 -1
    x24       e36                  1
    x25       e26                 -1
    x25       e36                  1
    x26       e19                 -1
    x26       e42          -0.000585
    x26       e43           -0.00494
    x26       e44           -0.00024
    x26       e45            -0.0004
    x27       e21                 -1
    x27       e42            -0.0075
    x27       e43             -0.015
    x28       e23                 -1
    x28       e42            -0.0374
    x28       e43            -0.0765
    x29       e25                 -1
    x29       e44            -0.0375
    x30       e17              -0.83
    x30       e33              -0.05
    x30       e38              -0.12
    x30       e41             -0.214
    x30       e42           -0.00063
    x30       e43          -0.004788
    x30       e44           -0.00022
    x30       e45           -0.00119
    x31       e17              -0.83
    x31       e28              -0.12
    x31       e33              -0.05
    x31       e41            -0.0234
    x31       e42            -0.0004
    x31       e43           -0.00304
    x31       e44           -0.00022
    x31       e45           -0.00049
    x32       e31                 -1
    x32       e32               -0.2
    x32       e41            -0.0258
    x32       e42           -0.00068
    x32       e43          -0.002584
    x32       e44             -4e-05
    x32       e45          -0.000168
    x32       e51               -1.3
    x33       e17              -0.83
    x33       e33              -0.05
    x33       e40              -0.12
    x33       e41            -0.0264
    x33       e42           -0.00024
    x33       e43          -0.001824
    x33       e44           -0.00014
    x33       e45          -0.000154
    x34       e33                 -1
    x34       e42          -0.000315
    x34       e43           -0.00266
    x34       e44          -0.000256
    x34       e45            -0.0012
    x35       e35                 -1
    x35       e41             -0.159
    x35       e42           -0.00054
    x35       e43           -0.00456
    x35       e44           -0.00016
    x35       e45           -0.00128
    x36       e37                 -1
    x36       e42            -0.0046
    x36       e43           -0.03496
    x36       e44             -0.005
    x36       e45           -0.00196
    x36       e51               -200
    x37       e17                  1
    x38       e19                  1
    x38       e51                -20
    x39       e21                  1
    x39       e51                -30
    x40       e23                  1
    x40       e46                 -1
    x40       e51               -123
    x41       e25                  1
    x41       e51               -100
    x42       e33                  1
    x42       e51                -12
    x43       e40                  1
    x44       e16                 -1
    x44       e50                  1
    x44       e52               -226
    x45       e18                 -1
    x45       e50                  1
    x45       e52               -316
    x46       e20                 -1
    x46       e50                  1
    x46       e52               -232
    x47       e22                 -1
    x47       e50                  1
    x47       e52               -238
    x48       e24                 -1
    x48       e50                  1
    x48       e52               -272
    x49       e26                 -1
    x49       e50                  1
    x49       e52               -233
    x50       e27                 -1
    x50       e46              0.225
    x50       e52              -1200
    x51       e29                 -1
    x51       e52              -1800
    x52       e30                 -1
    x52       e52               -720
    x53       e38                 -1
    x53       e52                -44
    x54       e39                 -1
    x54       e52               -375
    x55       e16                 -1
    x55       e46               0.17
    x55       e52               -339
    x56       e18                 -1
    x56       e46               0.17
    x56       e52               -474
    x57       e20                 -1
    x57       e46               0.17
    x57       e52               -348
    x58       e22                 -1
    x58       e46               0.17
    x58       e52               -357
    x59       e24                 -1
    x59       e46               0.17
    x59       e52               -408
    x60       e26                 -1
    x60       e46               0.17
    x60       e52             -349.5
    x61       e27                 -1
    x61       e46              0.225
    x61       e52              -1320
    x62       e29                 -1
    x62       e52              -1980
    x63       e30                 -1
    x63       e46               0.45
    x63       e52              -1080
    x64       e38                 -1
    x64       e52              -48.4
    x65       e39                 -1
    x65       e52             -412.5
    x66       e51                  1
    x66       e52                  1
    x67       obj                 -1
    x67       e52                  1
RHS
    rhs       e1                 137
    rhs       e2                 137
    rhs       e3                 137
    rhs       e4                 137
    rhs       e5                 137
    rhs       e6                 137
    rhs       e7                 137
    rhs       e8                 137
    rhs       e9                 137
    rhs       e10                137
    rhs       e11             153.44
    rhs       e12                137
    rhs       e13                137
    rhs       e14                137
    rhs       e15                137
    rhs       e47              268.6
    rhs       e48                7.8
    rhs       e50                100
BOUNDS
 UP bnd       x38                  7
 UP bnd       x41                500
 UP bnd       x42              10000
 UP bnd       x43                 15
 LO bnd       x50                  4
 LO bnd       x52                  4
 LO bnd       x53                1.2
 FR bnd       x66
 FR bnd       x67
ENDATA
